(declare-fun bvlambda_47_ () (_ BitVec 1))
(declare-fun a186 () (Array (_ BitVec 1) (_ BitVec 12)))
(assert
(let (($e21 (_ bv72 12)))
(let (($e23 (_ bv20 7)))
(let (($e42 (_ bv20 12)))
(let (($e276         bvlambda_47_              ))
(let (($e711 (store a186 true        $e42)))
(let (($e712 (store $e711        bvlambda_47_ $e21)))
(let (($e1032 (select $e712 true       )))
              (   extract      $e1032)
                                                                                                                                                                                                                                                                                                                                                                                                                                                                                                                                                                                                                                                                                                                                                                                                                                                                                                                                                                                                                                                                                                                                                                                                                                                                                                                                                                                                                                                                                                                                                                                                                                                                                                                                                                                                                                                                                                                                                                                                                                                                                        )                                                                                                                                                                                                                                                                                                                               ))                                                                                                                                                                                                                                                                                                                                                                                                                                                  )                                                                                                                                                                           )                  ) )                    )
